--- Job cutstock.gms Start 12/13/18 11:23:27 24.7.4 r58773 LEX-LEG x86 64bit/Linux
GAMS 24.7.4   Copyright (C) 1987-2016 GAMS Development. All rights reserved
Licensee: Remigijus Paulavicius, Single User License     S170731:0859AO-LNX
          Imperial College London, Dept. of Chemical Engineering    DC13449
          License for teaching and research at degree granting institutions
          remigijus.paulavicius@imperial.ac.uk                             
--- Starting compilation
--- cutstock.gms(103) 3 Mb
--- Starting execution: elapsed 0:00:00.002
--- cutstock.gms(74) 4 Mb
--- Generating RMIP model master
--- cutstock.gms(75) 4 Mb
--- LOOPS FOR/WHILE = 1
---   5 rows  5 columns  9 non-zeroes
---   4 discrete-columns
--- Executing CPLEX: elapsed 0:00:00.005

IBM ILOG CPLEX   24.7.4 r58773 Released Sep 19, 2016 LEG x86 64bit/Linux      
Cplex 12.6.3.0

*** Error Cannot open parameter file "/home/renigijus/gams/opt-mod-lib/gamslib/cutstock/cplex.opt"
*** Error Error code = 2; No such file or directory
Reading data...
Starting Cplex...
Space for names approximately 0.00 Mb
Use option 'names no' to turn use of names off
Tried aggregator 1 time.
LP Presolve eliminated 5 rows and 5 columns.
All rows and columns eliminated.
Presolve time = 0.00 sec. (0.00 ticks)
LP status(1): optimal
Cplex Time: 0.00sec (det. 0.00 ticks)

Optimal solution found.
Objective :         515.309524

--- Restarting execution
--- cutstock.gms(75) 2 Mb
--- Reading solution for model master
--- cutstock.gms(74) 3 Mb
--- Generating MIP model pricing
--- cutstock.gms(76) 3 Mb
--- LOOPS FOR/WHILE = 1
---   2 rows  5 columns  9 non-zeroes
---   4 discrete-columns
--- Executing CONVERT: elapsed 0:00:00.040

Convert 2.0      24.7.4 r58773 Released Sep 19, 2016 LEG x86 64bit/Linux      

--- Using Option File
Reading parameter(s) from "/home/renigijus/gams/opt-mod-lib/gamslib/cutstock/convert.opt"
>>  pyomo cutstock-scalar.py
Finished reading from "/home/renigijus/gams/opt-mod-lib/gamslib/cutstock/convert.opt"
--- Writing Pyomo     : cutstock-scalar.py

--- Restarting execution
--- cutstock.gms(76) 2 Mb
--- Reading solution for model pricing
--- cutstock.gms(88) 3 Mb
--- Generating MIP model master
--- cutstock.gms(89) 3 Mb
---   5 rows  5 columns  9 non-zeroes
---   4 discrete-columns
--- Executing CONVERT: elapsed 0:00:00.110

Convert 2.0      24.7.4 r58773 Released Sep 19, 2016 LEG x86 64bit/Linux      

--- Using Option File
Reading parameter(s) from "/home/renigijus/gams/opt-mod-lib/gamslib/cutstock/convert.opt"
>>  pyomo cutstock-scalar.py
Finished reading from "/home/renigijus/gams/opt-mod-lib/gamslib/cutstock/convert.opt"
--- Writing Pyomo     : cutstock-scalar.py

--- Restarting execution
--- cutstock.gms(89) 2 Mb
--- Reading solution for model master
--- cutstock.gms(103) 3 Mb
*** Status: Normal completion
--- Job cutstock.gms Stop 12/13/18 11:23:27 elapsed 0:00:00.150
